10	5
0	2	1	2
1	2	5	7
2	2	6	5
3	1	9
4	2	8	9
5	3	4	3	10
6	3	4	10	7
7	1	8
8	1	11
9	1	11
10	1	11
11	0
0	0	0	0	0	0	0
1	9	0	0	1	0	2
2	6	5	0	0	0	0
3	2	2	0	5	0	2
4	4	0	5	0	0	0
5	8	1	2	5	3	0
6	2	0	2	0	1	0
7	6	5	0	0	5	0
8	1	0	4	3	0	0
9	9	4	3	2	5	4
10	3	0	2	4	2	0
11	0	0	0	0	0	0
5	3	5	4	3
